50 50
   1   -1   29   47   28   27   18   36   32   12    1   19   34    6   40   22   15    9   46    5   34   46    8   11   28   14   36   10   40   12    7   12   37   46    9   35   44   41   40   21   -1   31    4   21   38   37   -1   15   -1   27 
   0    1   11   36    2   -1   18   25   40   11   42    1   47   13   43    3   -1   -1   -1   38   -1   12   -1   43   37   27   26   16    6    4   41   38   20   28   -1   -1    7   -1   20    1    9   -1   21    9    5   -1   11   20   45   37 
   0    0    1   32   15   -1    5   45   43   28   37   -1    1   45   44    6   45   30    5    9   20   -1   41   35   27   44   36    4   39   18   34   10   29    0   -1    6   34   47    2   30    1   -1   37    1    8   -1   -1   39   27   -1 
   0    0    0    1   -1   46   22    8   25   34   -1   31    3   48   16   -1    6   -1   39   48   -1   42   11   20   20   -1   44   40   -1   46   44   34   38   23   19   -1    4   49   38   41   26    9   36   37   10    0   47   46   31   -1 
   0    0    0    0    1   17   22   -1   21   -1   -1   -1   43   -1   -1    0   41   41    5   -1   39    5    5    6   27   11   -1   35   41   -1   43   33    7   20   -1   -1   -1    5   18   33   47   15   30   42   -1   40   33   -1   14   -1 
   0    0    0    0    0    1    0   47   -1   -1   -1    6    4   -1    9   -1   28   26   -1   45   34   -1   46   29   32   23   30   19   46   47   11   -1   38    6   -1   39   23   39   23   45   -1   21   23   30    6   36   -1   27   -1   12 
   0    0    0    0    0    0    1   22    4    0   27    2   30   16   19   35   43    1    4   23   42   18   24   35   32   38   12    0    7   12   41   10   46    0   28   -1    8   47    0   -1   11   39    8    1   32   26   31   -1   32   21 
   0    0    0    0    0    0    0    1   18   32   42   35   19   23   16   46   45   10   30   -1   -1   -1   46   -1   11   14   36   42   37   16    4   -1   40   13   29   31    8   21   -1   37    9   28   31   41   -1   -1   41   23   13   24 
   0    0    0    0    0    0    0    0    1   23   33   45   31   29   -1   23   -1   27   -1    7   37   26    6   45   30   46   46   26   12   36   -1    2   43   37   -1   -1   46   17   44   -1   23    1   42   45   28   40    4   27    3   16 
   0    0    0    0    0    0    0    0    0    1    6   23   -1    9   42   20   41   -1    8    5   34    2   -1   31   17   -1    8   10   17   30   46   38   19   14   14    2   13   20   17   19   10   12   -1   45   29   43   29   44   -1   -1 
   0    0    0    0    0    0    0    0    0    0    0   -1    5    1   25   41   20   -1   34   30   49   49   19   22   11   45   41   10    0   14   49    5   -1   26   -1   36    1    3    1   13    5   12   25    9    7   29    7   11   21   39 
   0    0    0    0    0    0    0    0    0    0    0    0   25   35    9   29   47   -1   49   42   40   10   49   11   -1   19   20   47   28   12   -1   30   18    8   -1   -1   39   41   -1   -1    2   -1   47   -1   43   29   10   49   12   11 
   0    0    0    0    0    0    0    0    0    0    0    0    0    2   46   -1   -1   40   -1   38   39   26   18   -1   47    6    9    9   -1   45   33   -1   42   -1   -1   -1    7   29   37   34   26   33   -1    0   10   10   49    7   21   27 
   0    0    0    0    0    0    0    0    0    0    0    0    0    0   15   12   38   27   28   39   38    7   12   32   -1   44   39   31   -1   -1   34   47   -1   18   -1   46   15   32   29   11   -1   42   40   -1   23   34   43   14   20   19 
   0    0    0    0    0    0    0    0    0    0    0    0    0    0    0   -1   47   -1    0   48   25   -1   44   18   18   33   10    7   42   31   10   14   47    0   11    0   37   -1    8   45   45   35    3   19   13   27   15   39   -1    8 
   0    0    0    0    0    0    0    0    0    0    0    0    0    0    0    0   30   -1    5   18    4   25    9   44   47   24   37   29   31   36   18   25   -1   12   31    7   23   40   20   41   25   45   -1   22   20    7   17   38   29   18 
   0    0    0    0    0    0    0    0    0    0    0    0    0    0    0    0    0   -1   -1   18    3   -1   26   22   48   -1   46    1   -1   49   23   32   45   35   30   26   31   49   18   31   29   21   41    5   -1    6   18   17   27   24 
   0    0    0    0    0    0    0    0    0    0    0    0    0    0    0    0    0    0   45   42   41   47   -1   24   -1   10   23   34   41   24   20    4   37   16    0   26    2   29   17   -1   -1   -1    4   49   -1   22   40   25   -1   19 
   0    0    0    0    0    0    0    0    0    0    0    0    0    0    0    0    0    0    0   16   -1    9    7   46   13   45   -1   38   36   49   -1   16   21   32   19    4   43   26    1   32   45   45   47   41   -1   43   -1   -1   -1   -1 
   0    0    0    0    0    0    0    0    0    0    0    0    0    0    0    0    0    0    0    0   37    7   -1    6   46   25    8    2   -1   40    7   17   21   -1   28    2   23   16    2   -1   36   41   43    1   -1   -1   48   44   -1    7 
   0    0    0    0    0    0    0    0    0    0    0    0    0    0    0    0    0    0    0    0    0   -1   22   -1    6   37   46   39   34   11   34   31   37   44   46   -1   36    0   22   23   40   42   13    5   10   18   29   23   16   17 
   0    0    0    0    0    0    0    0    0    0    0    0    0    0    0    0    0    0    0    0    0    0    5   -1   26   40   35   44   10   33   39    4   11   27   48    9   11   -1    0   27    0   18    1   -1   11   42   -1   39   22    6 
   0    0    0    0    0    0    0    0    0    0    0    0    0    0    0    0    0    0    0    0    0    0    0    5   15   -1   -1   -1   39   -1    5   -1   13   26   23    6   -1   11   -1   36   -1   35   28   -1   45   44   40   -1    6   43 
   0    0    0    0    0    0    0    0    0    0    0    0    0    0    0    0    0    0    0    0    0    0    0    0    4    0    7   -1    7   45   34   -1   31    0   30   27   23   -1   32   34   -1   39   -1   25   40    6   18   20   26    6 
   0    0    0    0    0    0    0    0    0    0    0    0    0    0    0    0    0    0    0    0    0    0    0    0    0   24   33   44   29    6    1   30    2    0   -1   25   -1   -1   -1   -1   27   -1   11   37    0    4   37   42   -1   44 
   0    0    0    0    0    0    0    0    0    0    0    0    0    0    0    0    0    0    0    0    0    0    0    0    0    0   44    2   -1    5   -1   12   48   39   -1   49    9    1   32   47   31   -1   33   -1   -1   20   44   13   12   13 
   0    0    0    0    0    0    0    0    0    0    0    0    0    0    0    0    0    0    0    0    0    0    0    0    0    0    0   20   -1   -1   27   16   32   16   29   49    1   -1    7    4   -1   13   45   40   31    4   27    7   31   34 
   0    0    0    0    0    0    0    0    0    0    0    0    0    0    0    0    0    0    0    0    0    0    0    0    0    0    0    0   35   46   -1   -1   -1   36   34   -1   11   -1   33   47   33    3   24   28   -1   20   18   -1   37   -1 
   0    0    0    0    0    0    0    0    0    0    0    0    0    0    0    0    0    0    0    0    0    0    0    0    0    0    0    0    0   36   34    8    0   37   21   -1   39    4   30   -1   48    0   -1   39   40   43   20   48   26   48 
   0    0    0    0    0    0    0    0    0    0    0    0    0    0    0    0    0    0    0    0    0    0    0    0    0    0    0    0    0    0   42   38    2   47   12   48    3   26   22   31   36    2   35    3   12    6   36    9   39   39 
   0    0    0    0    0    0    0    0    0    0    0    0    0    0    0    0    0    0    0    0    0    0    0    0    0    0    0    0    0    0    0   44   11   -1   -1   27   30   -1   -1   17   21   33   19    3   47   16   -1   35   -1   32 
   0    0    0    0    0    0    0    0    0    0    0    0    0    0    0    0    0    0    0    0    0    0    0    0    0    0    0    0    0    0    0    0   46   27   20   -1   33   32   22   49    1   34   10   15    8    1    6   -1   -1   20 
   0    0    0    0    0    0    0    0    0    0    0    0    0    0    0    0    0    0    0    0    0    0    0    0    0    0    0    0    0    0    0    0    0   18   36   27   28    7   30   31   16   26   42   -1   44   11   -1   30    9   38 
   0    0    0    0    0    0    0    0    0    0    0    0    0    0    0    0    0    0    0    0    0    0    0    0    0    0    0    0    0    0    0    0    0    0   28   -1   34   27   25   -1    7   -1   11   49    0   25   36   27   22   30 
   0    0    0    0    0    0    0    0    0    0    0    0    0    0    0    0    0    0    0    0    0    0    0    0    0    0    0    0    0    0    0    0    0    0    0   46   48   24   18   34    3   49   38   26   36   34   -1   36   12   27 
   0    0    0    0    0    0    0    0    0    0    0    0    0    0    0    0    0    0    0    0    0    0    0    0    0    0    0    0    0    0    0    0    0    0    0    0   -1   34    8    5   -1   38   29   14   -1   34   -1    6   38   29 
   0    0    0    0    0    0    0    0    0    0    0    0    0    0    0    0    0    0    0    0    0    0    0    0    0    0    0    0    0    0    0    0    0    0    0    0    0   -1    0   -1   24   -1   27   45   29   46   19   10    0   -1 
   0    0    0    0    0    0    0    0    0    0    0    0    0    0    0    0    0    0    0    0    0    0    0    0    0    0    0    0    0    0    0    0    0    0    0    0    0    0   23   23   12   12   29   25   -1    2   43   20   -1   31 
   0    0    0    0    0    0    0    0    0    0    0    0    0    0    0    0    0    0    0    0    0    0    0    0    0    0    0    0    0    0    0    0    0    0    0    0    0    0    0   -1   34    7   49   13   29    5   22   11   18   29 
   0    0    0    0    0    0    0    0    0    0    0    0    0    0    0    0    0    0    0    0    0    0    0    0    0    0    0    0    0    0    0    0    0    0    0    0    0    0    0    0   -1   18   12    0   35    5   -1   -1   -1   33 
   0    0    0    0    0    0    0    0    0    0    0    0    0    0    0    0    0    0    0    0    0    0    0    0    0    0    0    0    0    0    0    0    0    0    0    0    0    0    0    0    0   14   34   10   28   30   46   -1   37   13 
   0    0    0    0    0    0    0    0    0    0    0    0    0    0    0    0    0    0    0    0    0    0    0    0    0    0    0    0    0    0    0    0    0    0    0    0    0    0    0    0    0    0   34   18   31   19    5   37    8   14 
   0    0    0    0    0    0    0    0    0    0    0    0    0    0    0    0    0    0    0    0    0    0    0    0    0    0    0    0    0    0    0    0    0    0    0    0    0    0    0    0    0    0    0   31   -1   37   -1   -1   40   12 
   0    0    0    0    0    0    0    0    0    0    0    0    0    0    0    0    0    0    0    0    0    0    0    0    0    0    0    0    0    0    0    0    0    0    0    0    0    0    0    0    0    0    0    0   -1   -1   18   47   -1   23 
   0    0    0    0    0    0    0    0    0    0    0    0    0    0    0    0    0    0    0    0    0    0    0    0    0    0    0    0    0    0    0    0    0    0    0    0    0    0    0    0    0    0    0    0    0   39   32    7   29   10 
   0    0    0    0    0    0    0    0    0    0    0    0    0    0    0    0    0    0    0    0    0    0    0    0    0    0    0    0    0    0    0    0    0    0    0    0    0    0    0    0    0    0    0    0    0    0   -1   42    4   42 
   0    0    0    0    0    0    0    0    0    0    0    0    0    0    0    0    0    0    0    0    0    0    0    0    0    0    0    0    0    0    0    0    0    0    0    0    0    0    0    0    0    0    0    0    0    0    0    3   46   13 
   0    0    0    0    0    0    0    0    0    0    0    0    0    0    0    0    0    0    0    0    0    0    0    0    0    0    0    0    0    0    0    0    0    0    0    0    0    0    0    0    0    0    0    0    0    0    0    0   30   20 
   0    0    0    0    0    0    0    0    0    0    0    0    0    0    0    0    0    0    0    0    0    0    0    0    0    0    0    0    0    0    0    0    0    0    0    0    0    0    0    0    0    0    0    0    0    0    0    0    0   42 
   0    0    0    0    0    0    0    0    0    0    0    0    0    0    0    0    0    0    0    0    0    0    0    0    0    0    0    0    0    0    0    0    0    0    0    0    0    0    0    0    0    0    0    0    0    0    0    0    0    0 
